c teste4
c 
c SAT 7 e 11 = 0 
c
p cnf 15 10
-10 2 6 -3 0 
-8 15 13 -2 0 
1 4 7 9 -5 0 
11 -9 6 8 -13 0 
16 -2 -7 -1 0 
-14 13 15 10 0 
12 7 8 -6 0 
-8 -9 -10 -11 0 
3 7 -9 -5 0 
-7 8 9 10 0 